\* Source Pyomo model name=Scenario1 *\

min 
x1:
+230 x12
+260 x13
+150 x14
-150 x15
-36 x16
-170 x17
-10 x19
+210 x21
+100000 x22
+238 x23

s.t.

c_u_x2_:
+1 x12
+1 x13
+1 x14
<= 500

c_l_x6_:
+2.3999999999999999 x12
-1 x15
-1 x18
+1 x21
>= 240

c_l_x7_:
+16 x13
-1 x16
-1 x19
+1 x22
>= 0

c_l_x8_:
+2 x14
-1 x17
-1 x20
+1 x23
>= 200

c_u_x10_:
-16 x13
+1 x16
+1 x19
<= 0

c_u_x11_:
-2 x14
+1 x17
+1 x20
<= 0

c_u_x9_:
-2.3999999999999999 x12
+1 x15
+1 x18
<= 0

r_l_x4_:
+1 x16
>= 0

r_u_x4_:
+1 x16
<= 6000

r_l_x3_:
+1 x15
>= 0

r_u_x3_:
+1 x15
<= 100000

r_l_x5_:
+1 x17
>= 0

r_u_x5_:
+1 x17
<= 100000

c_e_ONE_VAR_CONSTANT: 
ONE_VAR_CONSTANT = 1.0

bounds 
   0 <= x12 <= 500
   0 <= x13 <= 500
   0 <= x14 <= 500
   0 <= x15 <= +inf
   0 <= x16 <= +inf
   0 <= x17 <= +inf
   0 <= x18 <= +inf
   0 <= x19 <= +inf
   0 <= x20 <= +inf
   0 <= x21 <= +inf
   0 <= x22 <= +inf
   0 <= x23 <= +inf
end 
